
Gurobi 7.0.2 (win64, Python) logging started 06/09/18 15:29:51


Gurobi 7.0.2 (win64, Python) logging started 06/11/18 11:04:10


Gurobi 7.0.2 (win64, Python) logging started 06/11/18 17:01:01


Gurobi 7.0.2 (win64, Python) logging started 06/12/18 08:02:19


Gurobi 7.0.2 (win64, Python) logging started 06/12/18 13:35:44


Gurobi 7.0.2 (win64, Python) logging started 06/13/18 23:42:30


Gurobi 7.0.2 (win64, Python) logging started 06/14/18 01:38:20


Gurobi 7.0.2 (win64, Python) logging started 06/14/18 10:33:59


Gurobi 7.0.2 (win64, Python) logging started 06/14/18 21:33:49


Gurobi 7.0.2 (win64, Python) logging started 06/16/18 11:13:30


Gurobi 8.0.0 (win64, Python) logging started 06/18/18 14:38:21


Gurobi 8.0.0 (win64, Python) logging started 06/18/18 14:42:16

Academic license - for non-commercial use only
Freed default Gurobi environment

Gurobi 7.0.2 (win64, Python) logging started 06/20/18 15:53:42


Gurobi 7.0.2 (win64, Python) logging started 06/21/18 11:25:34


Gurobi 8.0.0 (win64, Python) logging started 06/23/18 02:01:03


Gurobi 8.0.0 (win64, Python) logging started 06/28/18 21:46:46

Academic license - for non-commercial use only

Gurobi 8.0.0 (win64, Python) logging started 07/16/18 14:11:58

Academic license - for non-commercial use only
Freed default Gurobi environment

Gurobi 8.0.0 (win64, Python) logging started 07/16/18 18:49:51

Academic license - for non-commercial use only
Freed default Gurobi environment

Gurobi 8.0.0 (win64, Python) logging started 07/17/18 12:05:31

Academic license - for non-commercial use only
Freed default Gurobi environment

Gurobi 8.0.0 (win64, Python) logging started 07/18/18 15:54:23

Academic license - for non-commercial use only
Freed default Gurobi environment

Gurobi 8.0.0 (win64, Python) logging started 07/20/18 10:28:35

Academic license - for non-commercial use only
Freed default Gurobi environment

Gurobi 8.0.0 (win64, Python) logging started 07/20/18 16:30:51

Academic license - for non-commercial use only

Gurobi 7.0.2 (win64, Python) logging started 07/20/18 20:30:47


Gurobi 7.0.2 (win64, Python) logging started 07/20/18 23:08:45


Gurobi 7.0.2 (win64, Python) logging started 07/21/18 17:12:28


Gurobi 7.0.2 (win64, Python) logging started 07/21/18 21:47:58


Gurobi 7.0.2 (win64, Python) logging started 07/22/18 23:25:08


Gurobi 7.0.2 (win64, Python) logging started 07/23/18 22:02:30


Gurobi 7.0.2 (win64, Python) logging started 07/23/18 22:10:14


Gurobi 7.0.2 (win64, Python) logging started 07/23/18 23:44:56


Gurobi 8.0.0 (win64, Python) logging started 07/25/18 10:40:06

Academic license - for non-commercial use only
Freed default Gurobi environment

Gurobi 8.0.0 (win64, Python) logging started 07/30/18 11:05:58

Academic license - for non-commercial use only

Gurobi 8.0.0 (win64, Python) logging started 07/30/18 16:20:01

Academic license - for non-commercial use only
